(set-info :status unsat) ; swine result
(set-logic ALL)
(declare-fun i1 () Int)
(declare-fun it392 () Int)
(declare-fun it393 () Int)
(declare-fun i2 () Int)
(declare-fun it394 () Int)
(declare-fun i3 () Int)
(declare-fun it395 () Int)
(declare-fun i4 () Int)
(declare-fun it396 () Int)
(declare-fun i5 () Int)
(declare-fun it397 () Int)
(declare-fun i6 () Int)
(declare-fun it398 () Int)
(declare-fun it399 () Int)
(declare-fun it400 () Int)
(declare-fun it401 () Int)
(declare-fun it402 () Int)
(declare-fun it403 () Int)
(declare-fun it404 () Int)
(declare-fun it405 () Int)
(declare-fun it406 () Int)
(declare-fun it407 () Int)
(declare-fun it408 () Int)
(declare-fun it409 () Int)
(declare-fun it273 () Int)
(declare-fun it414 () Int)
(declare-fun it415 () Int)
(declare-fun it416 () Int)
(declare-fun it417 () Int)
(declare-fun it418 () Int)
(declare-fun it419 () Int)
(declare-fun it424 () Int)
(declare-fun it425 () Int)
(declare-fun it426 () Int)
(declare-fun it427 () Int)
(declare-fun it428 () Int)
(declare-fun it429 () Int)
(declare-fun it432 () Int)
(declare-fun it433 () Int)
(declare-fun it434 () Int)
(declare-fun it435 () Int)
(declare-fun it436 () Int)
(declare-fun it437 () Int)
(declare-fun it440 () Int)
(declare-fun it441 () Int)
(declare-fun it442 () Int)
(declare-fun it443 () Int)
(declare-fun it444 () Int)
(declare-fun it445 () Int)
(declare-fun it452 () Int)
(declare-fun it453 () Int)
(declare-fun it454 () Int)
(declare-fun it455 () Int)
(declare-fun it456 () Int)
(declare-fun it457 () Int)
(declare-fun it462 () Int)
(declare-fun it463 () Int)
(declare-fun it464 () Int)
(declare-fun it465 () Int)
(declare-fun it466 () Int)
(declare-fun it467 () Int)
(declare-fun it420 () Int)
(declare-fun it479 () Int)
(declare-fun it480 () Int)
(declare-fun it481 () Int)
(declare-fun it482 () Int)
(declare-fun it483 () Int)
(declare-fun it484 () Int)
(declare-fun it493 () Int)
(declare-fun it494 () Int)
(declare-fun it495 () Int)
(declare-fun it496 () Int)
(declare-fun it497 () Int)
(declare-fun it498 () Int)
(declare-fun it507 () Int)
(declare-fun it508 () Int)
(declare-fun it509 () Int)
(declare-fun it510 () Int)
(declare-fun it511 () Int)
(declare-fun it512 () Int)
(declare-fun it527 () Int)
(declare-fun it528 () Int)
(declare-fun it529 () Int)
(declare-fun it530 () Int)
(declare-fun it531 () Int)
(declare-fun it532 () Int)
(declare-fun it537 () Int)
(declare-fun it538 () Int)
(declare-fun it539 () Int)
(declare-fun it540 () Int)
(declare-fun it541 () Int)
(declare-fun it542 () Int)
(declare-fun it545 () Int)
(declare-fun it546 () Int)
(declare-fun it547 () Int)
(declare-fun it548 () Int)
(declare-fun it549 () Int)
(declare-fun it550 () Int)
(declare-fun it555 () Int)
(declare-fun it556 () Int)
(declare-fun it557 () Int)
(declare-fun it558 () Int)
(declare-fun it559 () Int)
(declare-fun it560 () Int)
(assert (= (+ i1 (- 1)) 0))
(assert (= (+ it392 (- 2)) 0))
(assert (= (+ (* i2 (- 1)) it393 (- 1)) 0))
(assert (= (+ (* i3 (- 1)) it394) 0))
(assert (= (+ (* i4 (- 1)) it395) 0))
(assert (= (+ (* i5 (- 1)) it396) 0))
(assert (= (+ (* i6 (- 1)) it397) 0))
(assert (and (= (+ it392 (- 2)) 0) (>= (+ it394 (- 3)) 0)))
(assert (= (+ it398 (- 5)) 0))
(assert (= (+ it399 (* it393 (- 1)) (- 2)) 0))
(assert (= (+ it400 (* it394 (- 1))) 0))
(assert (= it401 0))
(assert (= (+ it402 (* it396 (- 1))) 0))
(assert (= (+ it403 (* it397 (- 1))) 0))
(assert (and (= (+ it398 (- 5)) 0) (>= (+ (* it401 (- 1)) it400 (- 2)) 0)))
(assert (= (+ it404 (- 7)) 0))
(assert (= (+ it405 (* it399 (- 1)) (- 2)) 0))
(assert (= (+ it406 (* it400 (- 1))) 0))
(assert (= (+ (* it401 (- 1)) it407) 0))
(assert (= it408 0))
(assert (= (+ it409 (* it403 (- 1))) 0))
(assert (let ((a!1 (>= (+ (+ (* it408 (- 2)) it406 (* it407 (- 1))) (- 3)) 0))
      (a!2 (>= (+ (+ (* it408 (- 2)) it406 (* it407 (- 1))) (- 4)) 0))
      (a!3 (+ (* (exp 2 it273) (+ 0 (- 2)))
              (* (exp 2 (+ it273 (- 1))) (+ 0 it408) (+ 0 (- 2)))
              (+ 0 it406)
              (+ 0 (* it407 (- 1))))))
  (and (>= (+ it404 (- 7)) 0)
       (>= (+ it273 (- 1)) 0)
       (>= (+ (* it404 (- 1)) 7) 0)
       a!1
       a!2
       (>= (+ a!3 (+ 0 1)) (+ 0 0))
       (>= a!3 (+ 0 0)))))
(assert (= (+ it414 (* it404 (- 1))) 0))
(assert (= (+ (* it273 (- 6)) (* it405 (- 1)) it415) 0))
(assert (= (+ it416 (* it406 (- 1))) 0))
(assert (= (+ it417 (* it407 (- 1))) 0))
(assert (let ((a!1 (+ (* (exp 2 it273) (+ 0 it408) (+ 0 (- 1)))
              (+ 0 it418)
              (* (exp 2 (+ it273 1)) (+ 0 (- 1)))
              (+ 0 2))))
  (= a!1 (+ 0 0))))
(assert (let ((a!1 (+ (* (exp 2 it273) (+ 0 (- 2)))
              (+ 0 it419)
              (* (exp 2 (+ it273 (- 1))) (+ 0 it408) (+ 0 (- 2)))
              (+ 0 2))))
  (= a!1 (+ 0 0))))
(assert (and (= (+ it414 (- 7)) 0)
     (>= (+ it416 (* it417 (- 1)) (* it418 (- 2)) (- 3)) 0)))
(assert (= (+ it424 (- 8)) 0))
(assert (= (+ it425 (* it415 (- 1)) (- 1)) 0))
(assert (= (+ (* it416 (- 1)) it426) 0))
(assert (= (+ (* it417 (- 1)) it427) 0))
(assert (= (+ it428 (* it418 (- 1))) 0))
(assert (= (+ (* it419 (- 1)) it429) 0))
(assert (and (= (+ it424 (- 8)) 0)
     (= (+ (* it428 (- 2)) it426 (* it427 (- 1)) (- 3)) 0)))
(assert (= (+ it432 (- 13)) 0))
(assert (= (+ (* it425 (- 1)) it433 (- 2)) 0))
(assert (= (+ (* it426 (- 1)) it434) 0))
(assert (= (+ it435 (* it427 (- 1))) 0))
(assert (= (+ (* it428 (- 1)) it436) 0))
(assert (= (+ it437 (* it428 (- 2)) (- 1)) 0))
(assert (= (+ it432 (- 13)) 0))
(assert (= (+ it440 (- 7)) 0))
(assert (= (+ it441 (* it433 (- 1)) (- 1)) 0))
(assert (= (+ it442 (* it434 (- 1))) 0))
(assert (= (+ (* it435 (- 1)) it443) 0))
(assert (= (+ it444 (* it434 (- 1))) 0))
(assert (= (+ (* it437 (- 1)) it445) 0))
(assert (and (>= (+ (* it444 2) (* it442 (- 1)) it443 2) 0) (= (+ it440 (- 7)) 0)))
(assert (= (+ it452 (- 5)) 0))
(assert (= (+ (* it441 (- 1)) it453 (- 2)) 0))
(assert (= (+ it454 (* it442 (- 1))) 0))
(assert (= (+ it455 (* it443 (- 1)) (- 1)) 0))
(assert (= (+ (* it444 (- 1)) it456) 0))
(assert (= (+ it457 (* it445 (- 1))) 0))
(assert (and (= (+ it452 (- 5)) 0) (>= (+ it454 (* it455 (- 1)) (- 2)) 0)))
(assert (= (+ it462 (- 7)) 0))
(assert (= (+ it463 (* it453 (- 1)) (- 2)) 0))
(assert (= (+ it464 (* it454 (- 1))) 0))
(assert (= (+ (* it455 (- 1)) it465) 0))
(assert (= it466 0))
(assert (= (+ (* it457 (- 1)) it467) 0))
(assert (let ((a!1 (>= (+ (+ (* it466 (- 2)) it464 (* it465 (- 1))) (- 4)) 0))
      (a!2 (+ (* (+ 0 it466) (exp 2 (+ it420 (- 1))) (+ 0 (- 2)))
              (+ 0 it464)
              (* (exp 2 it420) (+ 0 (- 2)))
              (+ 0 (* it465 (- 1)))))
      (a!3 (>= (+ (+ (* it466 (- 2)) it464 (* it465 (- 1))) (- 3)) 0)))
  (and (>= (+ (* it462 (- 1)) 7) 0)
       a!1
       (>= (+ it420 (- 1)) 0)
       (>= (+ a!2 (+ 0 1)) (+ 0 0))
       a!3
       (>= (+ it462 (- 7)) 0)
       (>= a!2 (+ 0 0)))))
(assert (= (+ it479 (* it462 (- 1))) 0))
(assert (= (+ (* it420 (- 6)) it480 (* it463 (- 1))) 0))
(assert (= (+ (* it464 (- 1)) it481) 0))
(assert (= (+ it482 (* it465 (- 1))) 0))
(assert (let ((a!1 (+ (* (exp 2 (+ it420 1)) (+ 0 (- 1)))
              (* (+ 0 it466) (exp 2 it420) (+ 0 (- 1)))
              (+ 0 it483)
              (+ 0 2))))
  (= a!1 (+ 0 0))))
(assert (let ((a!1 (+ (* (+ 0 it466) (exp 2 (+ it420 (- 1))) (+ 0 (- 2)))
              (* (exp 2 it420) (+ 0 (- 2)))
              (+ 0 it484)
              (+ 0 2))))
  (= a!1 (+ 0 0))))
(assert (and (>= (+ it482 (* it483 2) (* it481 (- 1)) 2) 0) (= (+ it479 (- 7)) 0)))
(assert (= (+ it493 (- 5)) 0))
(assert (= (+ (* it480 (- 1)) it494 (- 2)) 0))
(assert (= (+ it495 (* it481 (- 1))) 0))
(assert (= (+ (* it482 (- 1)) it496 (- 1)) 0))
(assert (= (+ it497 (* it483 (- 1))) 0))
(assert (= (+ it498 (* it484 (- 1))) 0))
(assert (and (= (+ it493 (- 5)) 0) (>= (+ it495 (* it496 (- 1)) (- 2)) 0)))
(assert (= (+ it507 (- 7)) 0))
(assert (= (+ it508 (* it494 (- 1)) (- 2)) 0))
(assert (= (+ (* it495 (- 1)) it509) 0))
(assert (= (+ (* it496 (- 1)) it510) 0))
(assert (= it511 0))
(assert (= (+ (* it498 (- 1)) it512) 0))
(assert (and (= (+ it507 (- 7)) 0)
     (>= (+ (* it511 (- 2)) it509 (* it510 (- 1)) (- 3)) 0)))
(assert (= (+ it527 (- 8)) 0))
(assert (= (+ it528 (* it508 (- 1)) (- 1)) 0))
(assert (= (+ it529 (* it509 (- 1))) 0))
(assert (= (+ it530 (* it510 (- 1))) 0))
(assert (= (+ it531 (* it511 (- 1))) 0))
(assert (= (+ it532 (* it512 (- 1))) 0))
(assert (and (= (+ it527 (- 8)) 0)
     (>= (+ (* it531 (- 2)) it529 (* it530 (- 1)) (- 4)) 0)))
(assert (= (+ it537 (- 11)) 0))
(assert (= (+ it538 (* it528 (- 1)) (- 1)) 0))
(assert (= (+ it539 (* it529 (- 1))) 0))
(assert (= (+ it540 (* it530 (- 1))) 0))
(assert (= (+ it541 (* it531 (- 1))) 0))
(assert (= (+ it542 (* it532 (- 1))) 0))
(assert (= (+ it537 (- 11)) 0))
(assert (= (+ it545 (- 13)) 0))
(assert (= (+ (* it538 (- 1)) it546 (- 2)) 0))
(assert (= (+ (* it539 (- 1)) it547) 0))
(assert (= (+ it548 (* it540 (- 1))) 0))
(assert (= (+ (* it541 (- 1)) it549) 0))
(assert (= (+ (* it541 (- 2)) it550 (- 2)) 0))
(assert (= (+ it545 (- 13)) 0))
(assert (= (+ it555 (- 7)) 0))
(assert (= (+ it556 (* it546 (- 1)) (- 2)) 0))
(assert (= (+ it557 (* it547 (- 1))) 0))
(assert (= (+ (* it548 (- 1)) it558) 0))
(assert (= (+ it559 (* it550 (- 1))) 0))
(assert (= (+ (* it550 (- 1)) it560) 0))
(assert (and (<= (+ (* it559 2) 2) 0)
     (>= (+ (* it559 2) (* it557 (- 1)) it558 3) 0)
     (>= (+ (* it559 (- 2)) it557 (* it558 (- 1)) (- 3)) 0)
     (<= (+ (* it559 (- 2)) (- 2)) 0)
     (>= (+ (* it555 (- 1)) 7) 0)
     (>= (+ it555 (- 7)) 0)))
(check-sat)
